sat
(:added-eqs                       169422
 :arith-eq-adapter                2638
 :arith-bound-propagations-lp     145795
 :arith-branch                    1940
 :arith-conflicts                 13902
 :arith-cube-calls                505
 :arith-dio-calls                 11
 :arith-dio-tighten-conflicts     1
 :arith-diseq                     92527
 :arith-fixed-eqs                 51051
 :arith-gcd-calls                 73
 :arith-gomory-cuts               26
 :arith-grobner-calls             2034
 :arith-grobner-conflicts         717
 :arith-hnf-calls                 485
 :arith-horner-calls              521
 :arith-horner-conflicts          20
 :arith-horner-cross-nested-forms 67131
 :arith-lower                     106259
 :arith-make-feasible             75052
 :arith-max-columns               1774
 :arith-max-rows                  910
 :arith-nla-add-bounds            396
 :arith-nla-lemmas                7900
 :arith-nla-propagate-bounds      2251
 :arith-nla-propagate-eq          60865
 :arith-nra-calls                 431
 :arith-offset-eqs                34447
 :arith-patches                   3277
 :arith-patches-success           1277
 :arith-upper                     117088
 :binary-propagations             655035
 :cnf-encoding-aux-vars           35
 :conflicts                       4673
 :decisions                       848904
 :del-clause                      15368
 :elim-unconstrained              184
 :final-checks                    5664
 :max-memory                      49.95
 :memory                          19.64
 :minimized-lits                  43809
 :mk-bool-var                     29142
 :mk-clause                       20780
 :mk-clause-binary                17742
 :nlsat-conflicts                 42939
 :nlsat-decisions                 2101
 :nlsat-propagations              1620990
 :nlsat-stages                    683893
 :num-allocs                      201271153693.00
 :num-checks                      2
 :propagations                    819095
 :restarts                        37
 :rlimit-count                    44483148
 :solve-eqs-elim-vars             104
 :solve-eqs-steps                 942
 :time                            52.21
 :total-time                      52.06)
